; PUSH cw_2 CALLER SWAP1 POP PUSH cw_3 DUP1 => CALLER PUSH cw_3 PUSH cw_3
(set-option :produce-proofs true)
; 
(set-info :status unknown)
(declare-fun storage_t ((_ BitVec 256) (_ BitVec 256) (_ BitVec 256) Int (_ BitVec 256)) (_ BitVec 256))
(declare-fun w_3 () (_ BitVec 256))
(declare-fun w_2 () (_ BitVec 256))
(declare-fun storage_s ((_ BitVec 256) (_ BitVec 256) (_ BitVec 256) Int (_ BitVec 256)) (_ BitVec 256))
(declare-fun exc_halt_t (Int) Bool)
(declare-fun exc_halt_s (Int) Bool)
(declare-fun sc_t (Int) (_ BitVec 6))
(declare-fun stack_t ((_ BitVec 256) (_ BitVec 256) (_ BitVec 256) Int (_ BitVec 6)) (_ BitVec 256))
(declare-fun stack_s ((_ BitVec 256) (_ BitVec 256) (_ BitVec 256) Int (_ BitVec 6)) (_ BitVec 256))
(declare-fun sc_s (Int) (_ BitVec 6))
(declare-fun used_gas_t ((_ BitVec 256) (_ BitVec 256) (_ BitVec 256) Int) Int)
(declare-fun used_gas_s ((_ BitVec 256) (_ BitVec 256) (_ BitVec 256) Int) Int)
(assert
 (exists ((x_CALLER (_ BitVec 256)) )(let (($x6958 (forall ((w (_ BitVec 256)) )(let ((?x8553 (storage_t w_2 w_3 x_CALLER 3 w)))
 (let ((?x1952 (storage_s w_2 w_3 x_CALLER 6 w)))
 (= ?x1952 ?x8553))))
 ))
 (let (($x9131 (exc_halt_t 3)))
 (let (($x7121 (exc_halt_s 6)))
 (let (($x10285 (= $x7121 $x9131)))
 (let (($x3822 (forall ((n (_ BitVec 6)) )(let ((?x10013 (sc_t 3)))
 (let (($x9392 (bvsle ?x10013 n)))
 (let ((?x834 (stack_t w_2 w_3 x_CALLER 3 n)))
 (let ((?x5120 (stack_s w_2 w_3 x_CALLER 6 n)))
 (let (($x9189 (= ?x5120 ?x834)))
 (or $x9189 $x9392)))))))
 ))
 (let ((?x10013 (sc_t 3)))
 (let ((?x9114 (sc_s 6)))
 (let (($x10208 (= ?x9114 ?x10013)))
 (let ((?x2700 (used_gas_t w_2 w_3 x_CALLER 0)))
 (let ((?x1654 (used_gas_s w_2 w_3 x_CALLER 0)))
 (let (($x9601 (= ?x1654 ?x2700)))
 (let (($x10355 (forall ((w (_ BitVec 256)) )(let ((?x7 (storage_t w_2 w_3 x_CALLER 0 w)))
 (let ((?x4240 (storage_s w_2 w_3 x_CALLER 0 w)))
 (= ?x4240 ?x7))))
 ))
 (let (($x56 (exc_halt_t 0)))
 (let (($x57 (exc_halt_s 0)))
 (let (($x58 (= $x57 $x56)))
 (let (($x3645 (forall ((n (_ BitVec 6)) )(let ((?x3443 (stack_t w_2 w_3 x_CALLER 0 n)))
 (let ((?x3800 (stack_s w_2 w_3 x_CALLER 0 n)))
 (let (($x9996 (= ?x3800 ?x3443)))
 (let ((?x63 (sc_t 0)))
 (let (($x7659 (bvsle ?x63 n)))
 (or $x7659 $x9996)))))))
 ))
 (let ((?x63 (sc_t 0)))
 (let ((?x72 (sc_s 0)))
 (let (($x73 (= ?x72 ?x63)))
 (let (($x8186 (exc_halt_t 2)))
 (let (($x3731 (or $x8186 (not (= ((_ extract 6 6) (bvadd (_ bv1 7) (concat (_ bv0 1) (sc_t 2)))) (_ bv0 1))))))
 (let (($x7754 (= $x9131 $x3731)))
 (let (($x3982 (forall ((w (_ BitVec 256)) )(let ((?x11856 (storage_t w_2 w_3 x_CALLER 2 w)))
 (let ((?x8553 (storage_t w_2 w_3 x_CALLER 3 w)))
 (= ?x8553 ?x11856))))
 ))
 (let (($x2737 (forall ((n (_ BitVec 6)) )(let ((?x11248 (sc_t 2)))
 (let (($x8371 (bvsle ?x11248 n)))
 (let ((?x4569 (stack_t w_2 w_3 x_CALLER 2 n)))
 (let ((?x834 (stack_t w_2 w_3 x_CALLER 3 n)))
 (or (= ?x834 ?x4569) $x8371))))))
 ))
 (let (($x1863 (= ?x10013 (bvadd (_ bv1 6) (sc_t 2)))))
 (let (($x210 (= (used_gas_t w_2 w_3 x_CALLER 3) (+ 3 (used_gas_t w_2 w_3 x_CALLER 2)))))
 (let (($x5947 (not (= ((_ extract 6 6) (bvadd (_ bv1 7) (concat (_ bv0 1) (sc_t 1)))) (_ bv0 1)))))
 (let (($x4852 (exc_halt_t 1)))
 (let (($x11228 (= $x8186 (or $x4852 $x5947))))
 (let (($x9497 (forall ((w (_ BitVec 256)) )(let ((?x330 (storage_t w_2 w_3 x_CALLER 1 w)))
 (let ((?x11856 (storage_t w_2 w_3 x_CALLER 2 w)))
 (= ?x11856 ?x330))))
 ))
 (let (($x1155 (forall ((n (_ BitVec 6)) )(let ((?x5335 (stack_t w_2 w_3 x_CALLER 1 n)))
 (let ((?x4569 (stack_t w_2 w_3 x_CALLER 2 n)))
 (let ((?x9666 (sc_t 1)))
 (let (($x6584 (bvsle ?x9666 n)))
 (or $x6584 (= ?x4569 ?x5335)))))))
 ))
 (let ((?x11248 (sc_t 2)))
 (let (($x902 (= ?x11248 (bvadd (_ bv1 6) (sc_t 1)))))
 (let ((?x8544 (used_gas_t w_2 w_3 x_CALLER 2)))
 (let (($x8663 (= $x4852 (or $x56 (not (= ((_ extract 6 6) (bvadd (_ bv1 7) (concat (_ bv0 1) ?x63))) (_ bv0 1)))))))
 (let (($x9166 (forall ((w (_ BitVec 256)) )(let ((?x7 (storage_t w_2 w_3 x_CALLER 0 w)))
 (let ((?x330 (storage_t w_2 w_3 x_CALLER 1 w)))
 (= ?x330 ?x7))))
 ))
 (let (($x7322 (forall ((n (_ BitVec 6)) )(let ((?x3443 (stack_t w_2 w_3 x_CALLER 0 n)))
 (let ((?x5335 (stack_t w_2 w_3 x_CALLER 1 n)))
 (let ((?x63 (sc_t 0)))
 (let (($x7659 (bvsle ?x63 n)))
 (or $x7659 (= ?x5335 ?x3443)))))))
 ))
 (let ((?x9666 (sc_t 1)))
 (let (($x5368 (= ?x9666 (bvadd (_ bv1 6) ?x63))))
 (let (($x5295 (not (= ((_ extract 6 6) (bvadd (_ bv1 7) (concat (_ bv0 1) (sc_s 5)))) (_ bv0 1)))))
 (let (($x1862 (exc_halt_s 5)))
 (let (($x698 (forall ((w (_ BitVec 256)) )(let ((?x4385 (storage_s w_2 w_3 x_CALLER 5 w)))
 (let ((?x1952 (storage_s w_2 w_3 x_CALLER 6 w)))
 (= ?x1952 ?x4385))))
 ))
 (let (($x8382 (forall ((n (_ BitVec 6)) )(let ((?x4655 (stack_s w_2 w_3 x_CALLER 5 n)))
 (let ((?x5120 (stack_s w_2 w_3 x_CALLER 6 n)))
 (or (= ?x5120 ?x4655) (bvsle (bvadd (_ bv63 6) (sc_s 5)) n)))))
 ))
 (let (($x970 (= ?x9114 (bvadd (_ bv1 6) (sc_s 5)))))
 (let (($x10409 (= (used_gas_s w_2 w_3 x_CALLER 6) (+ 3 (used_gas_s w_2 w_3 x_CALLER 5)))))
 (let ((?x4319 (sc_s 5)))
 (let ((?x2623 (bvadd (_ bv63 6) ?x4319)))
 (let ((?x5773 (stack_s w_2 w_3 x_CALLER 5 ?x2623)))
 (let (($x9175 (exc_halt_s 4)))
 (let (($x7059 (or $x9175 (not (= ((_ extract 6 6) (bvadd (_ bv1 7) (concat (_ bv0 1) (sc_s 4)))) (_ bv0 1))))))
 (let (($x5937 (forall ((w (_ BitVec 256)) )(let ((?x5601 (storage_s w_2 w_3 x_CALLER 4 w)))
 (let ((?x4385 (storage_s w_2 w_3 x_CALLER 5 w)))
 (= ?x4385 ?x5601))))
 ))
 (let (($x4282 (forall ((n (_ BitVec 6)) )(let ((?x9804 (stack_s w_2 w_3 x_CALLER 4 n)))
 (let ((?x4655 (stack_s w_2 w_3 x_CALLER 5 n)))
 (or (bvsle (sc_s 4) n) (= ?x4655 ?x9804)))))
 ))
 (let ((?x6451 (used_gas_s w_2 w_3 x_CALLER 5)))
 (let (($x7124 (= $x9175 (or (exc_halt_s 3) (not (bvsle (_ bv0 6) (bvadd (_ bv63 6) (sc_s 3))))))))
 (let (($x11739 (forall ((w (_ BitVec 256)) )(let ((?x8794 (storage_s w_2 w_3 x_CALLER 3 w)))
 (let ((?x5601 (storage_s w_2 w_3 x_CALLER 4 w)))
 (= ?x5601 ?x8794))))
 ))
 (let (($x11897 (forall ((n (_ BitVec 6)) )(let ((?x516 (stack_s w_2 w_3 x_CALLER 3 n)))
 (let ((?x9804 (stack_s w_2 w_3 x_CALLER 4 n)))
 (or (bvsle (bvadd (_ bv63 6) (sc_s 3)) n) (= ?x9804 ?x516)))))
 ))
 (let ((?x6221 (used_gas_s w_2 w_3 x_CALLER 4)))
 (let (($x8103 (exc_halt_s 3)))
 (let (($x9252 (= $x8103 (or (exc_halt_s 2) (not (bvsle (_ bv0 6) (bvadd (_ bv62 6) (sc_s 2))))))))
 (let (($x3468 (forall ((w (_ BitVec 256)) )(let ((?x8241 (storage_s w_2 w_3 x_CALLER 2 w)))
 (let ((?x8794 (storage_s w_2 w_3 x_CALLER 3 w)))
 (= ?x8794 ?x8241))))
 ))
 (let (($x142 (forall ((n (_ BitVec 6)) )(let ((?x9903 (stack_s w_2 w_3 x_CALLER 2 n)))
 (let ((?x516 (stack_s w_2 w_3 x_CALLER 3 n)))
 (or (= ?x516 ?x9903) (bvsle (bvadd (_ bv62 6) (sc_s 2)) n)))))
 ))
 (let ((?x2272 (sc_s 2)))
 (let ((?x3851 (sc_s 3)))
 (let (($x3963 (= ?x3851 ?x2272)))
 (let ((?x6225 (used_gas_s w_2 w_3 x_CALLER 3)))
 (let (($x7155 (= (stack_s w_2 w_3 x_CALLER 3 (bvadd (_ bv62 6) ?x3851)) (stack_s w_2 w_3 x_CALLER 2 (bvadd (_ bv63 6) ?x2272)))))
 (let (($x4787 (= (stack_s w_2 w_3 x_CALLER 3 (bvadd (_ bv63 6) ?x3851)) (stack_s w_2 w_3 x_CALLER 2 (bvadd (_ bv62 6) ?x2272)))))
 (let (($x4339 (not (= ((_ extract 6 6) (bvadd (_ bv1 7) (concat (_ bv0 1) (sc_s 1)))) (_ bv0 1)))))
 (let (($x8780 (exc_halt_s 1)))
 (let (($x10052 (exc_halt_s 2)))
 (let (($x8907 (= $x10052 (or $x8780 $x4339))))
 (let (($x3302 (forall ((w (_ BitVec 256)) )(let ((?x6307 (storage_s w_2 w_3 x_CALLER 1 w)))
 (let ((?x8241 (storage_s w_2 w_3 x_CALLER 2 w)))
 (= ?x8241 ?x6307))))
 ))
 (let (($x3020 (forall ((n (_ BitVec 6)) )(let ((?x6761 (stack_s w_2 w_3 x_CALLER 1 n)))
 (let ((?x9903 (stack_s w_2 w_3 x_CALLER 2 n)))
 (let ((?x154 (sc_s 1)))
 (let (($x6404 (bvsle ?x154 n)))
 (or $x6404 (= ?x9903 ?x6761)))))))
 ))
 (let (($x11361 (= ?x2272 (bvadd (_ bv1 6) (sc_s 1)))))
 (let ((?x6986 (used_gas_s w_2 w_3 x_CALLER 2)))
 (let (($x8607 (= $x8780 (or $x57 (not (= ((_ extract 6 6) (bvadd (_ bv1 7) (concat (_ bv0 1) ?x72))) (_ bv0 1)))))))
 (let (($x4593 (forall ((w (_ BitVec 256)) )(let ((?x4240 (storage_s w_2 w_3 x_CALLER 0 w)))
 (let ((?x6307 (storage_s w_2 w_3 x_CALLER 1 w)))
 (= ?x6307 ?x4240))))
 ))
 (let (($x8558 (forall ((n (_ BitVec 6)) )(let ((?x3800 (stack_s w_2 w_3 x_CALLER 0 n)))
 (let ((?x6761 (stack_s w_2 w_3 x_CALLER 1 n)))
 (let ((?x72 (sc_s 0)))
 (let (($x949 (bvsle ?x72 n)))
 (or $x949 (= ?x6761 ?x3800)))))))
 ))
 (let ((?x154 (sc_s 1)))
 (let (($x6719 (= ?x154 (bvadd (_ bv1 6) ?x72))))
 (let (($x8008 (forall ((w (_ BitVec 256)) )(let ((?x4240 (storage_s w_2 w_3 x_CALLER 0 w)))
 (= ?x4240 (_ bv0 256))))
 ))
 (let (($x550 (= ?x1654 0)))
 (let (($x6704 (not $x57)))
 (let (($x4825 (= ?x72 (_ bv0 6))))
 (and $x4825 $x6704 $x550 $x8008 (= (stack_s w_2 w_3 x_CALLER 1 ?x72) w_2) (= (used_gas_s w_2 w_3 x_CALLER 1) (+ 3 ?x1654)) $x6719 $x8558 $x4593 $x8607 (= (stack_s w_2 w_3 x_CALLER 2 ?x154) x_CALLER) (= ?x6986 (+ 2 (used_gas_s w_2 w_3 x_CALLER 1))) $x11361 $x3020 $x3302 $x8907 $x4787 $x7155 (= ?x6225 (+ 3 ?x6986)) $x3963 $x142 $x3468 $x9252 (= ?x6221 (+ 2 ?x6225)) (= (sc_s 4) (bvadd (_ bv63 6) ?x3851)) $x11897 $x11739 $x7124 (= (stack_s w_2 w_3 x_CALLER 5 (sc_s 4)) w_3) (= ?x6451 (+ 3 ?x6221)) (= ?x4319 (bvadd (_ bv1 6) (sc_s 4))) $x4282 $x5937 (= $x1862 $x7059) (= (stack_s w_2 w_3 x_CALLER 6 (bvadd (_ bv63 6) ?x9114)) ?x5773) (= (stack_s w_2 w_3 x_CALLER 6 ?x2623) ?x5773) $x10409 $x970 $x8382 $x698 (= $x7121 (or $x1862 (not (bvsle (_ bv0 6) ?x2623)) $x5295)) (= (stack_t w_2 w_3 x_CALLER 1 ?x63) x_CALLER) (= (used_gas_t w_2 w_3 x_CALLER 1) (+ 2 ?x2700)) $x5368 $x7322 $x9166 $x8663 (= (stack_t w_2 w_3 x_CALLER 2 ?x9666) w_3) (= ?x8544 (+ 3 (used_gas_t w_2 w_3 x_CALLER 1))) $x902 $x1155 $x9497 $x11228 (= (stack_t w_2 w_3 x_CALLER 3 ?x11248) w_3) $x210 $x1863 $x2737 $x3982 $x7754 $x73 $x3645 $x58 $x10355 $x9601 (not (and $x10208 $x3822 $x10285 $x6958))))))))))))))))))))))))))))))))))))))))))))))))))))))))))))))))))))))))))))))))))))))))
 )
(check-sat)
(get-proof)
